(set-logic QF_SLIA)
(declare-fun var0 () String)
(assert (not (str.in_re var0 (re.++ ((_ re.loop 9 217) (re.++ (re.union (str.to_re "-/@") (re.union (str.to_re "+[?") (re.union (str.to_re ";{G") (str.to_re ":")))) (re.++ (re.union (str.to_re "qB") (re.union (str.to_re "P>b") (re.union (str.to_re "Y[") (str.to_re "N")))) (re.++ (re.union (str.to_re "^R") (re.union (str.to_re "<U") (re.union (str.to_re "K?i") (str.to_re "g")))) (re.union (str.to_re "h") (re.union (str.to_re "b4d") (re.union (str.to_re "}6.") (str.to_re "]m")))))))) (re.++ ((_ re.loop 18 392) (re.++ (re.union (str.to_re "t^") (re.union (str.to_re "\u0022") (re.union (str.to_re "!7)") (str.to_re "c]!")))) (re.++ (re.union (str.to_re "'6") (re.union (str.to_re "`'") (re.union (str.to_re "m") (str.to_re "^")))) (re.++ (re.union (str.to_re "&") (re.union (str.to_re "\\") (re.union (str.to_re "9P") (str.to_re "v:")))) (re.union (str.to_re "#59") (re.union (str.to_re "_WF") (re.union (str.to_re "aL7") (str.to_re "uQ")))))))) (re.++ ((_ re.loop 2 391) (re.++ (re.union (str.to_re "V](") (re.union (str.to_re "b\\l") (re.union (str.to_re "mmQ") (str.to_re "Jj/")))) (re.++ (re.union (str.to_re "J~]") (re.union (str.to_re "4<") (re.union (str.to_re "Z") (str.to_re "S-O")))) (re.++ (re.union (str.to_re "!AW") (re.union (str.to_re "7") (re.union (str.to_re "T)") (str.to_re "=^")))) (re.union (str.to_re "|yT") (re.union (str.to_re "A") (re.union (str.to_re "d'W") (str.to_re "F)")))))))) ((_ re.loop 9 728) (re.++ (re.union (str.to_re "W4|") (re.union (str.to_re "@wl") (re.union (str.to_re "_uL") (str.to_re "{A")))) (re.++ (re.union (str.to_re "7{") (re.union (str.to_re "8") (re.union (str.to_re "aY") (str.to_re "pQH")))) (re.++ (re.union (str.to_re "K") (re.union (str.to_re "N") (re.union (str.to_re ")") (str.to_re "K;")))) (re.union (str.to_re "i@") (re.union (str.to_re "N") (re.union (str.to_re "j82") (str.to_re "9o3"))))))))))))))
(assert (not (str.in_re var0 (re.++ ((_ re.loop 3 196) (re.++ (re.union (str.to_re "-") (re.union (str.to_re "^|") (re.union (str.to_re "si=") (str.to_re "b")))) (re.++ (re.union (str.to_re "sr") (re.union (str.to_re "sI") (re.union (str.to_re "gV") (str.to_re "2K^")))) (re.++ (re.union (str.to_re "'%w") (re.union (str.to_re "o") (re.union (str.to_re "Q") (str.to_re "Hw")))) (re.union (str.to_re "3") (re.union (str.to_re "_") (re.union (str.to_re "R<c") (str.to_re "CSB")))))))) (re.++ ((_ re.loop 9 789) (re.++ (re.union (str.to_re "'a,") (re.union (str.to_re "7~{") (re.union (str.to_re "w") (str.to_re "/v")))) (re.++ (re.union (str.to_re "u_r") (re.union (str.to_re "X") (re.union (str.to_re "\\C$") (str.to_re "^Q$")))) (re.++ (re.union (str.to_re "zA") (re.union (str.to_re "J") (re.union (str.to_re "ua") (str.to_re "#,")))) (re.union (str.to_re "v") (re.union (str.to_re "a") (re.union (str.to_re "(!&") (str.to_re "e")))))))) (re.++ ((_ re.loop 11 611) (re.++ (re.union (str.to_re "8JV") (re.union (str.to_re ":$") (re.union (str.to_re "B]") (str.to_re "T8")))) (re.++ (re.union (str.to_re "xs") (re.union (str.to_re "SOs") (re.union (str.to_re "gyK") (str.to_re "!_1")))) (re.++ (re.union (str.to_re "Y\\") (re.union (str.to_re "*") (re.union (str.to_re "j") (str.to_re "4g")))) (re.union (str.to_re "x") (re.union (str.to_re ".g") (re.union (str.to_re "G") (str.to_re "?7")))))))) ((_ re.loop 8 558) (re.++ (re.union (str.to_re "U") (re.union (str.to_re "[T4") (re.union (str.to_re "g,") (str.to_re "f")))) (re.++ (re.union (str.to_re ")x") (re.union (str.to_re "H") (re.union (str.to_re "t(^") (str.to_re "ue")))) (re.++ (re.union (str.to_re "L") (re.union (str.to_re "um6") (re.union (str.to_re "?") (str.to_re "E")))) (re.union (str.to_re "u") (re.union (str.to_re "SF)") (re.union (str.to_re "M1/") (str.to_re "}i/"))))))))))))))
(assert (not (str.in_re var0 (re.++ (re.* re.allchar) (re.++ (re.union (str.to_re "<") (re.union (str.to_re ">") (re.union (str.to_re "'") (re.union (str.to_re "\u0022") (str.to_re "&"))))) (re.* re.allchar))))))
(assert (<= 50 (str.len var0)))
(check-sat)
(get-model)
